C  N  C  N  C  N  C  Co Pt
 1.0000000000000000
    19.7399999999999984    0.0000000000000000    0.0000000000000000
    -9.8699999999999992   17.0953414707048168    0.0000000000000000
     0.0000000000000000   -0.0000000000000000   20.0000000000000000
 C   N   C   N   C   N   C   Co  Pt 
  39   2  13   2  13   2  53   1   1
Cartesian
  0.0000000000000000  0.0000000000000000 10.0000000000000000
  1.2337499999999999  0.7123058946127007 10.0000000000000000
 -1.2337499999999999  2.1369176838381021 10.0000000000000000
  0.0000000000000000  2.8492235784508027 10.0000000000000000
 -2.4674999999999998  4.2738353676762042 10.0000000000000000
 -1.2337499999999999  4.9861412622889052 10.0000000000000000
 -3.7012499999999999  6.4107530515143063 10.0000000000000000
 -2.4675000000000002  7.1230589461270073 10.0000000000000000
 -4.9349999999999996  8.5476707353524084 10.0000000000000000
 -3.7012499999999999  9.2599766299651094 10.0000000000000000
 -6.1687499999999993 10.6845884191905114 10.0000000000000000
 -4.9349999999999996 11.3968943138032124 10.0000000000000000
 -7.4024999999999999 12.8215061030286126 10.0000000000000000
 -6.1687500000000002 13.5338119976413136 10.0000000000000000
 -8.6362499999999986 14.9584237868667138 10.0000000000000000
 -7.4024999999999990 15.6707296814794148 10.0000000000000000
  2.4674999999999998  0.0000000000000000 10.0000000000000000
  3.7012499999999999  0.7123058946127007 10.0000000000000000
  1.2337499999999999  2.1369176838381021 10.0000000000000000
  2.4674999999999998  2.8492235784508027 10.0000000000000000
  0.0000000000000000  4.2738353676762042 10.0000000000000000
  1.2337499999999999  4.9861412622889052 10.0000000000000000
 -1.2337500000000001  6.4107530515143063 10.0000000000000000
 -0.0000000000000002  7.1230589461270073 10.0000000000000000
 -2.4674999999999998  8.5476707353524084 10.0000000000000000
 -1.2337499999999999  9.2599766299651094 10.0000000000000000
 -3.7012499999999995 10.6845884191905114 10.0000000000000000
 -2.4674999999999994 11.3968943138032124 10.0000000000000000
 -4.9350000000000005 12.8215061030286126 10.0000000000000000
 -3.7012500000000008 13.5338119976413136 10.0000000000000000
 -6.1687499999999993 14.9584237868667138 10.0000000000000000
 -4.9349999999999996 15.6707296814794148 10.0000000000000000
  4.9349999999999996  0.0000000000000000 10.0000000000000000
  6.1687499999999993  0.7123058946127007 10.0000000000000000
  3.7012499999999999  2.1369176838381021 10.0000000000000000
  4.9349999999999996  2.8492235784508027 10.0000000000000000
  2.4674999999999998  4.2738353676762042 10.0000000000000000
  3.7012499999999999  4.9861412622889052 10.0000000000000000
  1.2337499999999997  6.4107530515143063 10.0000000000000000
  2.4674999999999994  7.1230589461270073 10.0000000000000000
  0.0000000000000000  8.5476707353524084 10.0000000000000000
 -1.2337499999999997 10.6845884191905114 10.0000000000000000
  0.0000000000000002 11.3968943138032124 10.0000000000000000
 -2.4675000000000002 12.8215061030286126 10.0000000000000000
 -1.2337500000000003 13.5338119976413136 10.0000000000000000
 -3.7012499999999990 14.9584237868667138 10.0000000000000000
 -2.4674999999999994 15.6707296814794148 10.0000000000000000
  7.4024999999999999  0.0000000000000000 10.0000000000000000
  8.6362500000000004  0.7123058946127007 10.0000000000000000
  6.1687500000000002  2.1369176838381021 10.0000000000000000
  7.4024999999999999  2.8492235784508027 10.0000000000000000
  4.9350000000000005  4.2738353676762042 10.0000000000000000
  6.1687500000000002  4.9861412622889052 10.0000000000000000
  3.7012499999999999  6.4107530515143063 10.0000000000000000
  4.9349999999999996  7.1230589461270073 10.0000000000000000
  1.2337500000000006 10.6845884191905114 10.0000000000000000
  2.4675000000000002 11.3968943138032124 10.0000000000000000
  0.0000000000000000 12.8215061030286126 10.0000000000000000
  1.2337499999999999 13.5338119976413136 10.0000000000000000
 -1.2337499999999988 14.9584237868667138 10.0000000000000000
  0.0000000000000011 15.6707296814794148 10.0000000000000000
  9.8699999999999992  0.0000000000000000 10.0000000000000000
 11.1037499999999998  0.7123058946127007 10.0000000000000000
  8.6362499999999986  2.1369176838381021 10.0000000000000000
  9.8699999999999992  2.8492235784508027 10.0000000000000000
  7.4024999999999999  4.2738353676762042 10.0000000000000000
  8.6362500000000004  4.9861412622889052 10.0000000000000000
  6.1687499999999993  6.4107530515143063 10.0000000000000000
  7.4024999999999990  7.1230589461270073 10.0000000000000000
  6.1687499999999993  9.2599766299651094 10.0000000000000000
  3.7012499999999999 10.6845884191905114 10.0000000000000000
  4.9349999999999996 11.3968943138032124 10.0000000000000000
  2.4674999999999994 12.8215061030286126 10.0000000000000000
  3.7012499999999990 13.5338119976413136 10.0000000000000000
  1.2337500000000006 14.9584237868667138 10.0000000000000000
  2.4675000000000002 15.6707296814794148 10.0000000000000000
 12.3374999999999986  0.0000000000000000 10.0000000000000000
 13.5712499999999991  0.7123058946127007 10.0000000000000000
 11.1037499999999980  2.1369176838381021 10.0000000000000000
 12.3374999999999986  2.8492235784508027 10.0000000000000000
  9.8699999999999992  4.2738353676762042 10.0000000000000000
 11.1037499999999998  4.9861412622889052 10.0000000000000000
  8.6362499999999986  6.4107530515143063 10.0000000000000000
  9.8699999999999992  7.1230589461270073 10.0000000000000000
  7.4024999999999990  8.5476707353524084 10.0000000000000000
  8.6362499999999986  9.2599766299651094 10.0000000000000000
  6.1687499999999993 10.6845884191905114 10.0000000000000000
  7.4024999999999990 11.3968943138032124 10.0000000000000000
  4.9349999999999987 12.8215061030286126 10.0000000000000000
  6.1687499999999984 13.5338119976413136 10.0000000000000000
  3.7012499999999999 14.9584237868667138 10.0000000000000000
  4.9349999999999996 15.6707296814794148 10.0000000000000000
 14.8049999999999997  0.0000000000000000 10.0000000000000000
 16.0387500000000003  0.7123058946127007 10.0000000000000000
 13.5712499999999991  2.1369176838381021 10.0000000000000000
 14.8049999999999997  2.8492235784508027 10.0000000000000000
 12.3375000000000004  4.2738353676762042 10.0000000000000000
 13.5712500000000009  4.9861412622889052 10.0000000000000000
 11.1037499999999998  6.4107530515143063 10.0000000000000000
 12.3375000000000004  7.1230589461270073 10.0000000000000000
  9.8700000000000010  8.5476707353524084 10.0000000000000000
 11.1037500000000016  9.2599766299651094 10.0000000000000000
  8.6362500000000004 10.6845884191905114 10.0000000000000000
  9.8700000000000010 11.3968943138032124 10.0000000000000000
  7.4024999999999999 12.8215061030286126 10.0000000000000000
  8.6362500000000004 13.5338119976413136 10.0000000000000000
  6.1687500000000011 14.9584237868667138 10.0000000000000000
  7.4025000000000007 15.6707296814794148 10.0000000000000000
 17.2724999999999973  0.0000000000000000 10.0000000000000000
 18.5062499999999979  0.7123058946127007 10.0000000000000000
 16.0387499999999967  2.1369176838381021 10.0000000000000000
 17.2724999999999973  2.8492235784508027 10.0000000000000000
 14.8049999999999979  4.2738353676762042 10.0000000000000000
 16.0387499999999967  4.9861412622889052 10.0000000000000000
 13.5712499999999974  6.4107530515143063 10.0000000000000000
 14.8049999999999979  7.1230589461270073 10.0000000000000000
 12.3374999999999986  8.5476707353524084 10.0000000000000000
 13.5712499999999991  9.2599766299651094 10.0000000000000000
 11.1037499999999980 10.6845884191905114 10.0000000000000000
 12.3374999999999986 11.3968943138032124 10.0000000000000000
  9.8699999999999974 12.8215061030286126 10.0000000000000000
 11.1037499999999980 13.5338119976413136 10.0000000000000000
  8.6362499999999986 14.9584237868667138 10.0000000000000000
  9.8699999999999992 15.6707296814794148 10.0000000000000000
  1.8506250000000000  8.9038236826587589 10.0000000000000000
  4.3181250000000002  8.9038236826587589 10.0000000000000000
